###################################Header for General commands#######################################################

atom_style	granular		#Simulation of particles

boundary	f f f

units		si

communicate	single vel yes	#default

newton		off				#default

###################################System variables##################################################################

#Definition of boundaries
variable xmin equal -0.05
variable xmax equal 0.05

variable ymin equal -0.01
variable ymax equal 1

variable zmin equal -0.05
variable zmax equal 0.05
#Definition of the timestep
variable dt equal 1e-6			#timestep = 0.0001 second; Each iteration step represents 0.0001 seconds.
###################################Specific variables for current simulation#########################################
variable natoms equal 2 	#1 -> particle #2->Box

####variable for material properties####
####Young Modulus####
variable	youngmodulus1	equal 	5e8		#N/mm²
variable	youngmodulus2	equal 	5e8		#N/mm²
####Poission ratio####
variable 	poission1	equal	0.4
variable 	poission2	equal	0.4
####coefficient of restitution####
variable	CoR11	equal	0.6
variable	CoR12	equal	0.6	
variable	CoR21	equal	0.6
variable	CoR22	equal	0.6
####sliding friction coefficient####
variable	sf11	equal	0.1
variable	sf12	equal	0.1
variable	sf21	equal	0.1
variable	sf22	equal	0.1
####rolling friction coefficient####
variable	rf11	equal	0
variable	rf12	equal	0
variable	rf21	equal	0
variable	rf22	equal	0
#Number of particle radius
variable	nradii	equal   1

variable	radius1	equal	0.002	#m

variable	frac1	equal	1.0		#10%

variable	density	equal	2500	#kg/m³
####filling parameters####
variable	filltime	equal	0.001	#seconds

variable	particleCount equal     10000	#NoPart

variable	fillmass	equal  0.8378	#kg

variable	fillmassrate	equal	${fillmass}/${filltime}	#kg/s

variable    fillParticleRate equal ${particleCount}/${filltime}

variable	fillsteps	equal	${filltime}/${dt}		#Transform time to iteration steps
####settle time####
variable	settletime	equal	1.0 #second

variable	settlesteps	equal	${settletime}/${dt}		#Transform time to iteration steps
###################################Definition of simulationbox#######################################################
region		reg block ${xmin} ${xmax} ${ymin} ${ymax} ${zmin} ${zmax} units box

create_box	2 reg

neighbor	0.004 bin		#default

neigh_modify	delay 0		#default
#################################Definition of the contact models####################################################
pair_style gran model hertz tangential history rolling_friction epsd2 limitForce on  	#contact model

pair_coeff	* *				#default

timestep ${dt}

fix		integrator all nve/sphere			#default

fix		gravi all gravity 9.81 vector 0.0 -1.0 0.0		
###################################Definition of Material properties#################################################
fix 	m1 all property/global youngsModulus peratomtype ${youngmodulus1} ${youngmodulus2}

fix 	m2 all property/global poissonsRatio peratomtype ${poission1} ${poission2}

fix 	m3 all property/global coefficientRestitution peratomtypepair ${natoms} ${CoR11} ${CoR12} ${CoR21} ${CoR22}

fix 	m4 all property/global coefficientFriction peratomtypepair ${natoms} ${sf11} ${sf12} ${sf21} ${sf22}

fix 	m5 all property/global coefficientRollingFriction peratomtypepair ${natoms} ${rf11} ${rf12} ${rf21} ${rf22}
###################################Generation and Loading of the Geometry .stl#######################################
fix		Box 	all mesh/surface file SystemBoundaries.stl	type 2  scale 1		

fix 	walls 	all wall/gran model hertz tangential history rolling_friction epsd2 mesh n_meshes 1 meshes Box
###################################Generation and Insertion of the particles#########################################
fix		pts1 all particletemplate/sphere 10487 atom_type 1 density constant ${density} radius constant ${radius1}	
	
fix 	pdd1 all particledistribution/discrete 32452867 ${nradii} pts1 ${frac1}

fix		ins_mesh all mesh/surface/planar file spawnPlane.stl type 1 scale 1 

fix 	ins all insert/stream seed 86028157 distributiontemplate pdd1 &
        mass ${fillmass} massrate ${fillmassrate} overlapcheck yes all_in yes vel constant 0 -1 0 &
        insertion_face ins_mesh extrude_length 0.55      
###################################Dumping of the data for post-processing to visualize############################
shell 	mkdir post

variable dumptime equal 0.005 # Every 0.05 s 1 image 

variable dumpstep equal ${dumptime}/${dt}	#Transform to iteration steps

dump	dmpparticle all custom/vtk ${dumpstep} post/particles_Res*.vtk id type x y z vx vy vz fx fy fz omegax omegay omegaz radius mass
####################################RUN the simulation filling###########################################################
run	 ${fillsteps}

unfix	ins
##################################RUN the simulation settling#############################################################
run	 ${settlesteps}


